loop__main__1422:
(set-info :source |printed by MathSAT|)
(declare-fun |main::s| () (_ BitVec 64))
(declare-fun |main::temp| () (_ BitVec 64))
(declare-fun |main::q| () (_ BitVec 64))
(declare-fun |main::tmp_var_2_int| () (_ BitVec 32))
(declare-fun |main::b| () (_ BitVec 64))
(declare-fun counter () (_ BitVec 32))
(assert (let ((.def_466 (= counter (_ bv0 32))))(let ((.def_504 (not .def_466)))(let ((.def_470 (= counter (_ bv2 32))))(let ((.def_505 (and .def_470 .def_504)))(let ((.def_256 ((_ sign_extend 32) |main::tmp_var_2_int|)))(let ((.def_258 (bvmul |main::q| .def_256)))(let ((.def_253 (bvmul |main::s| |main::temp|)))(let ((.def_260 (bvadd .def_253 .def_258)))(let ((.def_262 (= .def_260 |main::b|)))(let ((.def_560 (or .def_262 .def_505)))(let ((.def_557 (or .def_466 .def_470)))(let ((.def_481 (not .def_470)))(let ((.def_556 (or .def_481 .def_504)))(let ((.def_558 (and .def_556 .def_557)))(let ((.def_441 (not .def_262)))(let ((.def_559 (or .def_441 .def_558)))(let ((.def_561 (and .def_559 .def_560))).def_561))))))))))))))))))
loop__main__1450:
(set-info :source |printed by MathSAT|)
(declare-fun |main::s| () (_ BitVec 64))
(declare-fun |main::temp| () (_ BitVec 64))
(declare-fun |main::q| () (_ BitVec 64))
(declare-fun |main::tmp_var_2_int| () (_ BitVec 32))
(declare-fun |main::b| () (_ BitVec 64))
(declare-fun counter () (_ BitVec 32))
(assert (let ((.def_468 (= counter (_ bv1 32))))(let ((.def_256 ((_ sign_extend 32) |main::tmp_var_2_int|)))(let ((.def_258 (bvmul |main::q| .def_256)))(let ((.def_253 (bvmul |main::s| |main::temp|)))(let ((.def_260 (bvadd .def_253 .def_258)))(let ((.def_262 (= .def_260 |main::b|)))(let ((.def_493 (and .def_262 .def_468))).def_493))))))))
loop__main__1454:
(set-info :source |printed by MathSAT|)
(declare-fun |main::s| () (_ BitVec 64))
(declare-fun |main::temp| () (_ BitVec 64))
(declare-fun |main::q| () (_ BitVec 64))
(declare-fun |main::tmp_var_2_int| () (_ BitVec 32))
(declare-fun |main::b| () (_ BitVec 64))
(assert (let ((.def_256 ((_ sign_extend 32) |main::tmp_var_2_int|)))(let ((.def_258 (bvmul |main::q| .def_256)))(let ((.def_253 (bvmul |main::s| |main::temp|)))(let ((.def_260 (bvadd .def_253 .def_258)))(let ((.def_262 (= .def_260 |main::b|))).def_262))))))
